925.58,61.18,73.32
1029.2,55.02,65.94
1030.92,54.93,65.83
1016.92,55.68,66.74
1035.64,54.68,65.53
1050.78,53.89,64.59
1127.84,50.21,60.17
1009.33,56.1,67.24
915.79,61.83,74.1
1088.37,52.03,62.36
915.16,61.87,74.16
1103.8,51.3,61.48
1064.92,53.17,63.73
961.46,58.9,70.59
1038.5,54.53,65.35
1091.43,51.88,62.18
949.18,59.66,71.5
1123.48,50.4,60.41
1057.44,53.55,64.18
1037.34,54.59,65.42
